32 1000
11 140
4 200
10 105
5 104
7 104
8 134
8 191
10 116
9 177
8 163
5 114
5 156
11 177
9 147
6 147
5 200
7 113
11 109
11 163
4 142
10 116
4 156
9 105
11 140
7 159
3 109
5 134
3 159
9 113
5 191
5 142
3 114
